eXY press epair packF sxx syy szz sxy sxz syz aveMPS+ aveMPS-
0.0 -23857588.8061436 -1.69236343069584e-10 0.82567304038549382827 23936261.838194 24117988.6022028 23518515.9780342 -8.94592814254104e-07 -9.6487367583561e-07 219.793772660932 23857588.806143656373 0
2.5e-06 -15356770.4667738 -1.69190805674055e-10 0.82567304038549382827 16569806.5867781 17772479.5460597 11728025.2674836 61875.3784508541 -1.06888641137938e-06 3.38130190839048e-08 15356770.466773800552 0
1.25e-05 -15356774.0786002 -1.69190438146011e-10 0.82567304038549382827 16569814.2835943 17772481.8354694 11728026.116737 309375.99265837 -1.71929671317463e-07 -2.62120177461663e-07 15356774.078600227833 0
3.50000000000001e-05 -15356791.3807013 -1.69183154416679e-10 0.82567304038549382827 16569856.0366424 17772485.283455 11728032.8220065 866244.029265463 5.45491190553147e-07 -1.76078789801383e-07 15356791.380701331422 0
7.5e-05 -15356857.2539624 -1.69148823004212e-10 0.82567304038549382827 16570019.350906 17772488.3418776 11728064.0691036 1856241.78113784 1.2537380605582e-07 3.98563402941375e-07 15356857.253962401301 0
0.0001375 -15357073.8620526 -1.69054655348407e-10 0.82567304038549382827 16570540.8678976 17772525.0077068 11728155.7105532 3403095.8904123 -2.90909854203965e-07 -4.9960898290513e-07 15357073.862052541226 0
0.0002275 -15357665.4853477 -1.68858174346848e-10 0.82567304038549382827 16571928.1087413 17772710.9198628 11728357.4274389 5630547.02691851 -2.42394257702685e-07 -1.88915794941026e-07 15357665.485347678885 0
0.00035 -15358867.3419673 -1.68390257242923e-10 0.82567304038549382827 16574810.9409596 17772995.3219281 11728795.7630143 8662406.52806943 -1.38552998642384e-07 -1.58690002649676e-07 15358867.341967333108 0
0.00051 -15361245.7598504 -1.67496987903349e-10 0.82567304038549382827 16580476.792571 17773601.5114742 11729658.9755059 12622336.2643833 -3.72361183851406e-07 -2.30285262097768e-07 15361245.759850343689 0
0.000712499999999999 -15365503.379824 -1.65875506944741e-10 0.82567304038549382827 16590643.6353144 17774661.1622089 11731205.3419487 17634184.2510093 -4.00642555303428e-07 6.35168798286974e-07 15365503.3798239436 0
0.000962499999999999 -15372717.2965516 -1.63139341940212e-10 0.82567304038549382827 16607861.4422522 17776473.4868034 11733816.9605992 23821628.7707549 -2.6708687132212e-07 -4.98543379043577e-07 15372717.296551564708 0
0.001265 -15384316.8219713 -1.58745524578326e-10 0.82567304038549382827 16635537.5306191 17779388.3715277 11738024.563767 31308415.0288321 -3.44373772085331e-07 -1.72713563813318e-07 15384316.821971293539 0
0.001625 -15402198.7714278 -1.51956250567042e-10 0.82567304038549382827 16678253.5340511 17783845.1027939 11744497.6774384 40218295.5043045 -2.81086701365282e-07 1.02330888069753e-07 15402198.771427793428 0
0.0020475 -15428858.8046394 -1.41816189629048e-10 0.82567304038549382827 16741931.1952298 17790468.1158948 11754177.1027935 50675076.2596652 5.68420046056908e-07 -2.23159801793648e-07 15428858.804639339447 0
0.0025375 -15467517.1973308 -1.27151875321664e-10 0.82567304038549382827 16834223.1579151 17800142.58617 11768185.8479073 62802446.1005629 3.23269916298483e-07 -1.66563376008924e-07 15467517.197330793366 0
0.0031 -15522137.8651059 -1.06465768112274e-10 0.82567304038549382827 16964540.3111801 17813882.7678558 11787990.5162819 76724185.7736226 3.95290039355167e-07 -3.58339919247811e-07 15522137.865105928853 0
0.00374 -15597458.834774 -7.78882311005626e-11 0.82567304038549382827 17144352.0842846 17832728.3786534 11815296.0413839 92564020.1025974 -5.36292702047098e-07 3.09530363060585e-08 15597458.834774004295 0
0.0044625 -15699404.4366511 -3.92042692407681e-11 0.82567304038549382827 17387751.9235133 17858213.1034142 11852248.2830257 110445709.48779 -1.59705847710223e-07 2.57322663524628e-07 15699404.436651106924 0
0.0052725 -15835144.7149689 1.22657688891707e-11 0.82567304038549382827 17711726.0400263 17892255.4895739 11901452.6153063 130493080.29959 -9.29451533679159e-07 3.39209574060879e-08 15835144.714968858287 0
0.006175 -16012768.3489924 7.97048315087009e-11 0.82567304038549382827 18135895.9869257 17936549.3438148 11965859.7162367 152829873.735761 1.96977486224082e-07 1.05027815084301e-07 16012768.348992340267 0
0.007175 -16242519.4198087 1.66838320738772e-10 0.82567304038549382827 18684288.7141115 17994095.1979857 12049174.3473289 177579413.756247 -6.27254852366906e-07 1.21358270814602e-07 16242519.419808777049 0
0.0082775 -16535738.3276642 2.78039797399706e-10 0.82567304038549382827 19384196.3823009 18067571.3161127 12155447.2845789 204866201.481942 -6.27616177814214e-07 -3.88876512665447e-08 16535738.327664136887 0
0.0094875 -16905614.1861069 4.18343645544991e-10 0.82567304038549382827 20267161.0599094 18160165.6077938 12289515.8906175 234813693.751003 3.9857258918156e-07 -1.05892469941789e-07 16905614.18610689044 0
0.01081 -17367491.4946493 5.93565736561818e-10 0.82567304038549382827 21369775.3973781 18275755.208137 12456943.8784328 267545531.351547 8.67609764748343e-08 3.80000308085916e-07 17367491.494649283588 0
0.01225 -17939747.3447368 8.10305405327564e-10 0.82567304038549382827 22735144.1659532 18420030.0791262 12664067.789131 303187057.019392 4.17036931955022e-07 8.74989377697604e-10 17939747.344736844301 0
0.0138125 -4999835.54171563 9.82479189136667e-10 0.82567304038549382827 2849671.31738456 -1524920.47690157 13674755.7846639 316987178.205346 -1.24246960593029e-06 -1.00559934065933e-06 13312096.713324535638 -8312261.1716088755056
0.0155025 55927371.7399309 1.28446815864159e-09 0.82567304038549382827 -88934978.2987084 -93112541.8054025 14265404.884318 268691026.301326 -1.80750911559882e-06 -1.41029704686478e-06 10990385.445473028347 -66917757.185403861105
0.017325 19715039.7728319 1.41349146993295e-09 0.82567304038549382827 -33516943.8695726 -40749918.1265032 15121742.6775801 367507185.253047 -1.32945472666566e-05 -1.35826599107239e-05 9184523.4562813565135 -28899563.229113187641
0.019285 289541621.140445 1.80543825983666e-09 0.82567304038549382827 -444971976.529128 -439639411.233178 15986524.3409702 12355314.4598712 -3.01802530366682e-05 -3.01886615085182e-05 12218002.706666439772 -301759623.84711176157
0.0213875 262129515.960304 1.82565381771216e-09 0.82567304038549382827 -402918422.236881 -400492646.801714 17022521.1576835 106324002.980916 -0.000829812501819373 -0.000813792204178545 14981436.72797286883 -277110952.68827670813
0.0236375 202189609.25885 2.00198214822963e-09 0.82567304038549382827 -310665706.679621 -314159045.728232 18255924.6313036 252461570.469963 -1.40841229831066e-05 -1.68280988578064e-05 12186754.768078390509 -214376364.0269279182
0.02604 161883170.250613 2.28103970488244e-09 0.82567304038549382827 -247893986.909253 -257403362.410591 19647838.5680063 372403690.4914 -5.32581461012034e-06 -7.7729800023369e-06 9042411.1661058012396 -170925581.41671860218
0.0286 209136272.184957 2.53185567422028e-09 0.82567304038549382827 -319840698.750836 -328303893.569848 20735775.765814 357184056.866104 2.69718912860156e-05 1.35069488329126e-05 1046132.3698295810027 -210182404.55478587747
0.0313225 227356955.260387 3.01489350051114e-09 0.82567304038549382827 -343767997.410075 -359947371.297748 21644502.926663 382224088.550155 -0.000822415214543995 -0.000733122540894754 1383841.4427405917086 -228740796.70312720537
0.0342125 250840416.522161 3.60143944840241e-09 0.82567304038549382827 -372550187.860453 -395672435.277111 15701373.5710811 412964633.929016 0.000541490448220708 -0.00308900400563924 2039140.9971965041477 -252879557.51935768127
0.037275 274294299.05337 4.29702563229125e-09 0.82567304038549382827 -406305605.253365 -432148175.651237 15570883.7444929 449578608.356183 0.144344005397103 0.136356591925478 1946593.175583666889 -276240892.22895365953
0.040515 300450210.467437 5.09565654400855e-09 0.82567304038549382827 -442957553.73275 -472510732.405634 14117654.736072 486658838.368295 0.117115368528702 0.0971646422203146 1691454.0594804589637 -302141664.52691793442
0.0439375 343438578.242803 5.89277789361629e-09 0.82567304038549382827 -487528854.399587 -531589185.831256 -11197694.4975677 513492532.82292 -1.96671278217889e-06 -3.71727333278586e-07 0 -343438578.24280387163
0.0475475 370745112.717248 6.91558932077787e-09 0.82567304038549382827 -525238941.884476 -574972326.622737 -12024069.6445313 554394002.682472 3.06501965879333e-07 -3.42316054283711e-07 0 -370745112.71724790335
0.05135 399221813.693331 8.07685143367588e-09 0.82567304038549382827 -564447990.63824 -620465202.120765 -12752248.3209897 597191486.430202 2.46681169789393e-07 1.13618480698056e-08 0 -399221813.69333148003
0.05535 428861750.230074 9.3907446103418e-09 0.82567304038549382827 -605129012.978175 -668094595.730484 -13361641.9815621 641897760.59109 -8.35751883783983e-07 -1.25794842064336e-07 0 -428861750.23007369041
0.0595525 461113951.145308 1.08291411021357e-08 0.82567304038549382827 -648960434.041818 -723028811.149288 -11352608.244818 685701697.688447 -8.11194001687273e-07 3.01001704568084e-07 0 -461113951.14530843496
0.0639625 493170904.964765 1.24878273937995e-08 0.82567304038549382827 -692641258.819162 -775398353.578083 -11473102.4970498 734034978.674848 -1.72370610846381e-07 1.85286464547619e-08 0 -493170904.96476519108
0.068585 526358418.45721 1.43465673688485e-08 0.82567304038549382827 -737687370.331067 -829986324.355766 -11401560.6847965 784280429.039352 1.00327215981226e-06 2.54055424098545e-07 0 -526358418.45720982552
0.073425 558025844.672532 1.64246149743225e-08 0.82567304038549382827 -782621885.264646 -885648472.927476 -5807175.82547287 837991373.213433 8.48123529306213e-06 -1.90518004410932e-06 0 -558025844.67253124714
0.0784875 590333071.695434 1.87481186057578e-08 0.82567304038549382827 -830082127.838771 -944101178.719256 3184091.47172369 897693570.890168 1.4553784823006e-05 -6.15285181404806e-07 0 -590333071.69543433189
0.0837775 644931389.978811 2.10513748074564e-08 0.82567304038549382827 -878732274.760965 -1009544679.51687 -46517215.6586012 934078497.264846 -8.40326631396512e-08 7.49905703727651e-07 118368.94576785183745 -645049758.92457902431
0.0893 690673252.966974 2.36551655069601e-08 0.82567304038549382827 -928551624.473062 -1094496491.92209 -48971642.5057675 981337564.005395 -4.14434163902378e-07 -5.48957465183257e-07 0 -690673252.96697402
0.09506 727564178.34898 2.67349080547315e-08 0.82567304038549382827 -976973944.836612 -1160650806.45074 -45067783.7595903 1040032443.97173 4.05887286033508e-05 -7.98742971739438e-06 0 -727564178.34897994995
0.1010625 773986540.026517 3.00757281279783e-08 0.82567304038549382827 -1034516541.54012 -1230763271.69635 -56679806.8430847 1097115295.8552 -1.58752928394949e-06 3.15100286693243e-07 1571525.5405611325987 -775558065.56707692146
0.1073125 821651980.273233 3.37521405386221e-08 0.82567304038549382827 -1096412076.48386 -1301217877.91558 -67325986.4202561 1157355765.67836 -0.000119150581517789 4.65973870672824e-06 2006003.6192071028054 -823657983.89244091511
0.113815 877009248.022333 3.78212276145012e-08 0.82567304038549382827 -1176349557.03921 -1373686494.12608 -80991692.9017127 1227120538.44785 -0.106048882191688 0.00591678941123569 0 -877009248.02233314514
0.120575 957004860.237528 4.23576634746317e-08 0.82567304038549382827 -1299318003.83061 -1448723421.47054 -122973155.411437 1306929514.4487 -0.0122053100262192 0.000705099768228123 0 -957004860.23752772808
0.1275975 970345490.730119 4.70075012934845e-08 0.82567304038549382827 -1283195721.73358 -1527563015.04897 -100277735.407804 1344249388.01712 5.44780787978779e-07 -2.69103251042903e-08 0 -970345490.73011958599
0.1348875 1015175790.61681 5.2318578083558e-08 0.82567304038549382827 -1339388121.36935 -1606967927.14284 -99171323.3382213 1411853017.5281 -6.9670895233169e-07 5.29032510220253e-07 95160.543055788584752 -1015270951.1598627567
0.14245 1060402598.0631 5.81009267682196e-08 0.82567304038549382827 -1395763025.63412 -1688334841.16313 -97109927.3920564 1481053016.86674 1.02297970709087e-06 3.47576707830114e-08 352021.46355094388127 -1060754619.5266550779
0.15029 1105895227.27531 6.43847408376177e-08 0.82567304038549382827 -1452160699.3366 -1771575203.0499 -93949779.4394449 1551828050.30204 4.43879125777934e-07 3.80677793299619e-07 642983.80876897263806 -1106538211.0840818882
0.1584125 1189441320.66186 7.11106945504883e-08 0.82567304038549382827 -1509152090.822 -1913460424.79946 -145711446.364126 1615588470.93785 0.031342889365049 0.197835308294879 0 -1189441320.6618621349
0.1668225 1264151602.02003 7.79518153664702e-08 0.82567304038549382827 -1508715388.63982 -2092371242.68979 -191368174.730458 1662362312.75145 10469.2776759781 57010.5268568213 0 -1264151602.0200247765
0.175525 1342163135.98069 8.43281741038361e-08 0.82567304038549382827 -1467265838.10984 -2304950792.05886 -254272777.773373 1693173528.00948 93214.228440171 -2352314.52639889 91475.121265849244082 -1342254611.1019563675
0.184525 1386767282.88878 9.25655248407353e-08 0.82567304038549382827 -1526159301.55956 -2406050885.56069 -228091661.546096 1777768833.01153 -840385.973537551 -5362306.93300196 153490.90425797514035 -1386920773.7930400372
0.1938275 1447047901.72035 9.97015375484197e-08 0.82567304038549382827 -1506448690.45255 -2573454013.79138 -261241000.917128 1797260864.96104 302088.547023804 -2740498.18740655 0 -1447047901.7203574181
0.2034375 1526058820.96275 1.06983775969833e-07 0.82567304038549382827 -1521463865.12705 -2774255984.08273 -282456613.67848 1769486218.846 1273710.77572778 -616346.685302047 0 -1526058820.9627556801
0.21336 1483014512.05328 6.72921385217354e-08 0.82567304038549382827 -1420167346.24427 -2234196595.97968 -794679593.935904 1007505603.75851 -17825132.2971545 -3434546.84600427 1739205.0310984915122 -1484753717.0843846798
0.2236 637540450.468151 1.55238407837184e-08 0.82567304038549382827 -561760699.460186 -801135129.781731 -549725522.162538 173967509.745815 13022796.4684326 41535073.9957273 2355431.3933108681813 -639895881.86146271229
0.2341625 688180524.169661 1.68355929875327e-08 0.82567304038549382827 -633902915.171779 -880649136.886398 -549989520.450805 294972910.372869 8838888.4785334 54809272.5871694 1188795.5503226930741 -689369319.7199832201
0.2450525 744390863.2036 1.88408801767117e-08 0.82567304038549382827 -706354247.343314 -990129313.678474 -536689028.589011 395927761.056745 20464124.6610388 56624828.6714018 489994.13961583725177 -744880857.34321451187
0.256275 792716803.874156 2.15845840738695e-08 0.82567304038549382827 -792102966.457233 -1063336399.46791 -522711045.69732 517658703.812581 23687649.6989074 48229628.3027898 290753.39940212969668 -793007557.27355837822
0.267835 539961408.636223 9.90344731289742e-09 0.82567304038549382827 -494487225.423393 -665192234.37591 -460204766.109366 119405438.900142 22185385.2013294 22268959.8830488 1685344.8248280668631 -541646753.4610517025
0.2797375 588965937.264128 1.11178967324577e-08 0.82567304038549382827 -562175377.37737 -751609799.688962 -453112634.726052 268393821.950537 19048744.1781087 15809776.7131365 1397821.5530415426474 -590363758.81717026234
0.2919875 652758062.90892 1.32455400523989e-08 0.82567304038549382827 -657195465.208085 -852568698.565729 -448510024.952946 385232197.15595 15216735.0455404 24646456.4685887 445198.70160607784055 -653203261.61052525043
0.30459 630538754.758295 1.18994530682881e-08 0.82567304038549382827 -626100098.335308 -839332181.461086 -426183984.478491 310658536.913839 18431773.185946 20091711.1788237 698020.48542701278348 -631236775.24372172356
0.31755 677416171.401583 1.45951340211159e-08 0.82567304038549382827 -694530282.087849 -929291264.999213 -408426967.117685 467816305.101997 15099707.9574728 25691391.8113881 506512.27924292196985 -677922683.68082547188
0.3308725 586134277.267695 1.02616832381598e-08 0.82567304038549382827 -579697036.87193 -796228243.366202 -382477551.564951 290613479.090454 740835.837421457 15784517.4267925 1325958.8094508140348 -587460236.07714545727
0.3445625 644776626.356644 1.29204715602957e-08 0.82567304038549382827 -649678623.94475 -901596978.734965 -383054276.390217 445515413.959217 5038778.40815794 19663608.3764246 673387.27476516156457 -645450013.63140940666
0.358625 717548993.841889 1.67454478618579e-08 0.82567304038549382827 -721592184.552447 -1040677177.35285 -390377619.620371 586266030.802904 -2511150.78060901 20125966.1802671 415458.36133310256992 -717964452.20322310925
0.373065 807830770.731194 2.16995047699792e-08 0.82567304038549382827 -815896137.313116 -1194285157.06676 -413311017.813705 725047486.681629 -10807719.1952067 1562964.4413622 159097.80291893103276 -807989868.53411364555
0.3878875 922658502.950959 2.7726182326519e-08 0.82567304038549382827 -912776606.348951 -1399465740.75561 -455733161.748312 829615669.491572 -15016307.5734045 11438842.7542723 14424.744675745851055 -922672927.69563317299
0.4030975 758984143.602822 1.61718704445741e-08 0.82567304038549382827 -720835554.649164 -1073788678.20942 -482328197.949881 392965270.924058 -30845397.8934934 33116160.5268033 501955.63467309664702 -759486099.23749530315
0.4187 474187052.037804 7.2300626183876e-09 0.82567304038549382827 -469443532.747013 -603557077.535941 -349560545.830457 145102781.359966 -31865978.6256193 21717747.6224404 3054866.5634220433421 -477241918.60122591257
0.4347 536003245.910793 9.15269457263382e-09 0.82567304038549382827 -520209765.061078 -715432362.608127 -372367610.063175 313995469.912919 -33981891.9936708 29720039.3513337 1506093.438900875859 -537509339.34969305992
